NAME : XML100_2353_12
DIMENSION : 101
NB_CLUSTERS : 31
CLUSTERING_ALG : DBSCAN
CLUSTERING_PARAMS : eps(42), minSamples(3)
CLUSTERS
1 0
2 1 5 57 58
3 9 30 73
4 2 20 61 80
5 17 25 31 37 72 75 96
6 15 27 42 44 78 87 97
7 29 52 62 100
8 18 36 54 71 85
9 16 89
10 19 34
11 22 63 70 91
12 74 86
13 48 53 99
14 59 67 88
15 6 65 69
16 21 47 77 82 90
17 43 79 94
18 38 93
19 24 35 40
20 28 33 60 76 92
21 3 46 68
22 11 23
23 12 50
24 4 7 81
25 10 41 56
26 14 55
27 8 64
28 32 98
29 13 26 45 84
30 49 51 95
31 39 66 83
EOF